Instance name: /home/cuong/CLionProjects/uMV-FSTSP/50_dis_rand_ins/v32
Write arg val: 1

drone speed: 1 miles/minute
uav non-eligible customer: 5 11 
Printing tau:
0 26.7247 48.1257 46.2358 61.8953 67.2693 60.8795 56.2835 51.3776 101.808 83.1744 0 
26.7247 0 42.7444 35.9906 35.1705 40.5445 34.1547 40.3158 41.3251 75.0829 56.4496 26.7247 
48.1257 42.7444 0 6.75377 27.6948 47.0329 25.5369 83.0602 84.0695 59.4669 40.8336 48.1257 
46.2358 35.9906 6.75377 0 20.9411 40.2792 18.7831 76.3064 77.3157 55.5718 36.9386 46.2358 
61.8953 35.1705 27.6948 20.9411 0 19.3381 2.15798 55.3653 56.3746 39.9123 21.2791 61.8953 
67.2693 40.5445 47.0329 40.2792 19.3381 0 21.4961 36.0273 37.0365 34.5383 15.9051 67.2693 
60.8795 34.1547 25.5369 18.7831 2.15798 21.4961 0 57.5233 58.5326 40.9281 22.2949 60.8795 
56.2835 40.3158 83.0602 76.3064 55.3653 36.0273 57.5233 0 4.90585 50.2378 45.6503 56.2835 
51.3776 41.3251 84.0695 77.3157 56.3746 37.0365 58.5326 4.90585 0 51.2471 46.6596 51.3776 
101.808 75.0829 59.4669 55.5718 39.9123 34.5383 40.9281 50.2378 51.2471 0 18.6332 101.808 
83.1744 56.4496 40.8336 36.9386 21.2791 15.9051 22.2949 45.6503 46.6596 18.6332 0 83.1744 
0 0 0 0 0 0 0 0 0 0 0 0 
Printing tau_prime:
0 7.2287 16.9971 16.4517 17.2835 17.8398 17.2185 17.5656 16.6265 27.2991 22.2372 0 
7.2287 0 12.067 10.8556 10.1439 10.811 10.1411 13.2558 12.7597 20.0824 15.0352 7.2287 
16.9971 12.067 0 2.06735 8.98978 14.115 8.3677 22.3328 22.4207 18.011 14.6847 16.9971 
16.4517 10.8556 2.06735 0 6.93369 12.0492 6.3154 20.4085 20.5467 16.2765 12.7286 16.4517 
17.2835 10.1439 8.98978 6.93369 0 5.3221 0.632445 14.7562 15.2065 10.6703 6.20272 17.2835 
17.8398 10.811 14.115 12.0492 5.3221 0 5.9465 9.98743 10.6867 9.90326 4.92932 17.8398 
17.2185 10.1411 8.3677 6.3154 0.632445 5.9465 0 15.3018 15.724 11.0233 6.69788 17.2185 
17.5656 13.2558 22.3328 20.4085 14.7562 9.98743 15.3018 0 1.3281 17.9771 14.0489 17.5656 
16.6265 12.7597 22.4207 20.5467 15.2065 10.6867 15.724 1.3281 0 19.0651 14.9722 16.6265 
27.2991 20.0824 18.011 16.2765 10.6703 9.90326 11.0233 17.9771 19.0651 0 5.08843 27.2991 
22.2372 15.0352 14.6847 12.7286 6.20272 4.92932 6.69788 14.0489 14.9722 5.08843 0 22.2372 
0 0 0 0 0 0 0 0 0 0 0 0 
Version identifier: 22.1.1.0 | 2022-11-28 | 9160aff4d
CPXPARAM_MIP_Tolerances_Integrality              0
Tried aggregator 1 time.
MIP Presolve eliminated 1 rows and 12 columns.
MIP Presolve modified 20 coefficients.
Reduced MIP has 122 rows, 120 columns, and 510 nonzeros.
Reduced MIP has 110 binaries, 0 generals, 0 SOSs, and 0 indicators.
Presolve time = 0.00 sec. (0.27 ticks)
Found incumbent of value 507.465400 after 0.00 sec. (0.75 ticks)
Probing time = 0.00 sec. (0.26 ticks)
Cover probing fixed 0 vars, tightened 10 bounds.
Tried aggregator 1 time.
Detecting symmetries...
MIP Presolve eliminated 10 rows and 0 columns.
MIP Presolve modified 180 coefficients.
Reduced MIP has 112 rows, 120 columns, and 490 nonzeros.
Reduced MIP has 110 binaries, 0 generals, 0 SOSs, and 0 indicators.
Presolve time = 0.00 sec. (0.35 ticks)
Probing time = 0.00 sec. (0.26 ticks)
Clique table members: 67.
MIP emphasis: balance optimality and feasibility.
MIP search method: dynamic search.
Parallel mode: deterministic, using up to 20 threads.
Root relaxation solution time = 0.00 sec. (0.21 ticks)

        Nodes                                         Cuts/
   Node  Left     Objective  IInf  Best Integer    Best Bound    ItCnt     Gap

*     0+    0                          507.4654        0.0000           100.00%
      0     0      164.9440    16      507.4654      164.9440       26   67.50%
*     0+    0                          259.2540      164.9440            36.38%
      0     0      235.5575    18      259.2540      Cuts: 16       42    9.14%
      0     0      235.5575    18      259.2540      Cuts: 45       57    9.14%
      0     0      235.5575    18      259.2540      Cuts: 16       62    9.14%
*     0+    0                          252.8904      235.5575             6.85%

Clique cuts applied:  4
Implied bound cuts applied:  3
Mixed integer rounding cuts applied:  9
Multi commodity flow cuts applied:  8
Lift and project cuts applied:  1
Gomory fractional cuts applied:  1

Root node processing (before b&c):
  Real time             =    0.02 sec. (7.39 ticks)
Parallel b&c, 20 threads:
  Real time             =    0.00 sec. (0.00 ticks)
  Sync time (average)   =    0.00 sec.
  Wait time (average)   =    0.00 sec.
                          ------------
Total (root+branch&cut) =    0.02 sec. (7.39 ticks)

TSP solution for this instance: 0 2 3 6 4 5 10 9 8 7 1 11 
12
Warmstart X[1][0] == 1
Warmstart X[2][2] == 1
Warmstart X[3][3] == 1
Warmstart X[4][6] == 1
Warmstart X[5][4] == 1
Warmstart X[6][5] == 1
Warmstart X[7][10] == 1
Warmstart X[8][9] == 1
Warmstart X[9][8] == 1
Warmstart X[10][7] == 1
Warmstart X[11][1] == 1
---------------------------------------------
Calculate max stage gap for sortie.... 
Stage gap calculation consumes too much memory. No constraint was added.
---------------------------------------------
Num constraint added = 5346
Warning:  Output names have been modified due to duplicate names or characters invalid in LP format.
Version identifier: 22.1.1.0 | 2022-11-28 | 9160aff4d
CPXPARAM_TimeLimit                               200
CPXPARAM_MIP_Tolerances_Integrality              0
1 of 1 MIP starts provided solutions.
MIP start 'm1' defined initial solution with objective 252.8904.
Tried aggregator 2 times.
MIP Presolve eliminated 5961 rows and 1691 columns.
MIP Presolve modified 2382 coefficients.
Aggregator did 40 substitutions.
Reduced MIP has 1365 rows, 3045 columns, and 33391 nonzeros.
Reduced MIP has 3024 binaries, 0 generals, 0 SOSs, and 0 indicators.
Presolve time = 0.04 sec. (109.25 ticks)
Probing fixed 244 vars, tightened 0 bounds.
Probing changed sense of 4 constraints.
Probing time = 0.05 sec. (121.05 ticks)
Cover probing fixed 0 vars, tightened 42 bounds.
Tried aggregator 2 times.
Detecting symmetries...
MIP Presolve eliminated 104 rows and 290 columns.
MIP Presolve modified 481 coefficients.
Aggregator did 14 substitutions.
Reduced MIP has 1247 rows, 2741 columns, and 28045 nonzeros.
Reduced MIP has 2720 binaries, 0 generals, 0 SOSs, and 0 indicators.
Presolve time = 0.03 sec. (51.98 ticks)
Probing time = 0.00 sec. (6.32 ticks)
Cover probing fixed 0 vars, tightened 20 bounds.
Clique table members: 9374.
MIP emphasis: balance optimality and feasibility.
MIP search method: dynamic search.
Parallel mode: deterministic, using up to 20 threads.
Root relaxation solution time = 0.11 sec. (229.20 ticks)

        Nodes                                         Cuts/
   Node  Left     Objective  IInf  Best Integer    Best Bound    ItCnt     Gap

*     0+    0                          252.8904       26.7247            89.43%
      0     0      153.0521   230      252.8904      153.0521       29   39.48%
*     0+    0                          242.2561      153.0521            36.82%
      0     0      156.6866   252      242.2561      Cuts: 47     1758   35.32%
*     0+    0                          236.3409      156.6866            33.70%
      0     0      166.1654   223      236.3409      Cuts: 21     5900   29.69%
      0     0      166.6654   273      236.3409       Cuts: 9     6307   29.48%
      0     0      166.7402   330      236.3409       Cuts: 8     7051   29.45%
      0     0      166.7742   340      236.3409  ZeroHalf: 15     7962   29.43%
Detecting symmetries...
      0     0      166.8240   355      236.3409   ZeroHalf: 7     9289   29.41%
      0     0      166.8466   344      236.3409       Cuts: 6     9683   29.40%
      0     0      166.8466   349      236.3409   ZeroHalf: 4     9951   29.40%
Detecting symmetries...
      0     2      166.8472   334      236.3409      168.7886    10122   28.58%
Elapsed time = 1.70 sec. (3172.96 ticks, tree = 0.02 MB, solutions = 3)
      2     3      168.0470   250      236.3409      168.7886    12620   28.58%
      3     3      180.4646   150      236.3409      168.7886    15729   28.58%
      6     4      171.5139   328      236.3409      170.8274    21166   27.72%
     25    15      194.2996   107      236.3409      171.6955    31691   27.35%
*    28+    4                          231.8326      171.6955            25.94%
*    49+    9                          228.6589      172.3838            24.61%
*   360    78      integral     0      225.0260      172.3838    63371   23.39%
    729   139        cutoff            225.0260      175.4471   111923   22.03%
    794   156      184.8136   203      225.0260      175.5380   135180   21.99%
   1118   170      222.5816    50      225.0260      175.9550   173528   21.81%
   1403   237      199.3540   152      225.0260      180.6739   206127   19.71%
*  2551   584      integral     0      217.3440      191.7717   382108   11.77%
   2707   570      204.4878    48      217.3440      192.5693   367412   11.40%
Elapsed time = 4.53 sec. (6734.44 ticks, tree = 1.82 MB, solutions = 7)
*  4541   110      integral     0      217.1513      206.0221   548201    5.13%

GUB cover cuts applied:  7
Clique cuts applied:  3
Cover cuts applied:  65
Implied bound cuts applied:  108
Zero-half cuts applied:  33
Lift and project cuts applied:  2
Gomory fractional cuts applied:  3

Root node processing (before b&c):
  Real time             =    1.64 sec. (3083.33 ticks)
Parallel b&c, 20 threads:
  Real time             =    3.82 sec. (4731.17 ticks)
  Sync time (average)   =    1.62 sec.
  Wait time (average)   =    0.00 sec.
                          ------------
Total (root+branch&cut) =    5.46 sec. (7814.50 ticks)
Feasible solution found!
Truck nodes:
Stage 1 at customer 0 with arrival time is: 0
Stage 1 at customer 0 with departure time is: 0
Stage 2 at customer 1 with arrival time is: 26.7247
Stage 2 at customer 1 with departure time is: 26.7247
Stage 3 at customer 3 with arrival time is: 62.7153
Stage 3 at customer 3 with departure time is: 63.7153
Stage 4 at customer 6 with arrival time is: 82.4984
Stage 4 at customer 6 with departure time is: 83.4984
Stage 5 at customer 4 with arrival time is: 85.6564
Stage 5 at customer 4 with departure time is: 85.6564
Stage 6 at customer 10 with arrival time is: 106.935
Stage 6 at customer 10 with departure time is: 107.935
Stage 7 at customer 5 with arrival time is: 123.841
Stage 7 at customer 5 with departure time is: 124.841
Stage 8 at customer 7 with arrival time is: 160.868
Stage 8 at customer 7 with departure time is: 160.868
Stage 9 at customer 8 with arrival time is: 165.774
Stage 9 at customer 8 with departure time is: 165.774
Stage 10 at customer 11 with arrival time is: 217.151
Stage 10 at customer 11 with departure time is: 217.151
Truck arcs:
Arc 1 connecting 0 and 1 with cost 26.7247 
Arc 2 connecting 1 and 3 with cost 35.9906 
Arc 3 connecting 3 and 6 with cost 18.7831 
Arc 4 connecting 6 and 4 with cost 2.15798 
Arc 5 connecting 4 and 10 with cost 21.2791 
Arc 6 connecting 10 and 5 with cost 15.9051 
Arc 7 connecting 5 and 7 with cost 36.0273 
Arc 8 connecting 7 and 8 with cost 4.90585 
Arc 9 connecting 8 and 11 with cost 51.3776 
Customer 2 served by drone.
Drone fly from 3 at stage 3 to serve 2 and then fly back to 6 at stage 4. 
Truck arcs during this sortie: 3--->6
Truck travel time from stage 3 to 4 is: 18.7831
Total drone travel time: 10.435
Drone arrival time: 74.1504
Truck arrival time: 82.4984
Truck departure time = max(d/a, t/a) plus (sl/sr): 83.4984
Customer 9 served by drone.
Drone fly from 10 at stage 6 to serve 9 and then fly back to 5 at stage 7. 
Truck arcs during this sortie: 10--->5
Truck travel time from stage 6 to 7 is: 15.9051
Total drone travel time: 14.9917
Drone arrival time: 122.927
Truck arrival time: 123.841
Truck departure time = max(d/a, t/a) plus (sl/sr): 124.841
Done!
-------------------------Re-calculated objective-----------------------
217.151
------------------------------------------------------------------------
Solve time: 5.466
OBJECTIVE VALUE: 217.151, NUMBER OF SORTIES: 2.
Number of revisit: 0
In write mode
